*SENSE:Maximize
NAME          MODEL
ROWS
 N  OBJ
 E  C0000000
 E  C0000001
 E  C0000002
 G  C0000003
 G  C0000004
 L  C0000005
 G  C0000006
 G  C0000007
 L  C0000008
 E  C0000009
 E  C0000010
 E  C0000011
 G  C0000012
 G  C0000013
 L  C0000014
 G  C0000015
 G  C0000016
 L  C0000017
 E  C0000018
 E  C0000019
 G  C0000020
 G  C0000021
 L  C0000022
 E  C0000023
 E  C0000024
 G  C0000025
 G  C0000026
 L  C0000027
 E  C0000028
 E  C0000029
 G  C0000030
 G  C0000031
 L  C0000032
 L  C0000033
 L  C0000034
 G  C0000035
 L  C0000036
 L  C0000037
 G  C0000038
 L  C0000039
 L  C0000040
 G  C0000041
 L  C0000042
 L  C0000043
 G  C0000044
 L  C0000045
 L  C0000046
 G  C0000047
 L  C0000048
 L  C0000049
 G  C0000050
COLUMNS
    X0000000  OBJ        1.000000000000e+00
    MARK      'MARKER'                 'INTORG'
    X0000002  C0000009   1.000000000000e+00
    X0000002  C0000012  -1.000000000000e+00
    X0000002  C0000014  -1.000000000000e+00
    X0000002  C0000023   1.000000000000e+00
    X0000002  C0000025  -1.000000000000e+00
    X0000002  C0000027  -1.000000000000e+00
    MARK      'MARKER'                 'INTEND'
    MARK      'MARKER'                 'INTORG'
    X0000002  C0000009   1.000000000000e+00
    X0000002  C0000012  -1.000000000000e+00
    X0000002  C0000014  -1.000000000000e+00
    X0000002  C0000023   1.000000000000e+00
    X0000002  C0000025  -1.000000000000e+00
    X0000002  C0000027  -1.000000000000e+00
    MARK      'MARKER'                 'INTEND'
    MARK      'MARKER'                 'INTORG'
    X0000004  C0000019   1.000000000000e+00
    X0000004  C0000021  -1.000000000000e+00
    X0000004  C0000022  -1.000000000000e+00
    X0000004  C0000028   1.000000000000e+00
    X0000004  C0000030  -1.000000000000e+00
    X0000004  C0000032  -1.000000000000e+00
    MARK      'MARKER'                 'INTEND'
    MARK      'MARKER'                 'INTORG'
    X0000004  C0000019   1.000000000000e+00
    X0000004  C0000021  -1.000000000000e+00
    X0000004  C0000022  -1.000000000000e+00
    X0000004  C0000028   1.000000000000e+00
    X0000004  C0000030  -1.000000000000e+00
    X0000004  C0000032  -1.000000000000e+00
    MARK      'MARKER'                 'INTEND'
    MARK      'MARKER'                 'INTORG'
    X0000005  C0000011   1.000000000000e+00
    X0000005  C0000016  -1.000000000000e+00
    X0000005  C0000017  -1.000000000000e+00
    MARK      'MARKER'                 'INTEND'
    MARK      'MARKER'                 'INTORG'
    X0000006  C0000018   1.000000000000e+00
    X0000006  C0000020  -1.000000000000e+00
    X0000006  C0000022  -1.000000000000e+00
    MARK      'MARKER'                 'INTEND'
    MARK      'MARKER'                 'INTORG'
    X0000008  C0000000   1.000000000000e+00
    X0000008  C0000003  -1.000000000000e+00
    X0000008  C0000005  -1.000000000000e+00
    X0000008  C0000029   1.000000000000e+00
    X0000008  C0000031  -1.000000000000e+00
    X0000008  C0000032  -1.000000000000e+00
    MARK      'MARKER'                 'INTEND'
    MARK      'MARKER'                 'INTORG'
    X0000008  C0000000   1.000000000000e+00
    X0000008  C0000003  -1.000000000000e+00
    X0000008  C0000005  -1.000000000000e+00
    X0000008  C0000029   1.000000000000e+00
    X0000008  C0000031  -1.000000000000e+00
    X0000008  C0000032  -1.000000000000e+00
    MARK      'MARKER'                 'INTEND'
    MARK      'MARKER'                 'INTORG'
    X0000014  C0000033   1.000000000000e+00
    X0000014  C0000034   1.000000000000e+00
    X0000014  C0000035   1.000000000000e+00
    X0000014  C0000036   1.000000000000e+00
    X0000014  C0000037   1.000000000000e+00
    X0000014  C0000038   1.000000000000e+00
    X0000014  C0000039   1.000000000000e+00
    X0000014  C0000040   1.000000000000e+00
    X0000014  C0000041   1.000000000000e+00
    X0000014  C0000042   1.000000000000e+00
    X0000014  C0000043   1.000000000000e+00
    X0000014  C0000044   1.000000000000e+00
    X0000014  C0000045   1.000000000000e+00
    X0000014  C0000046   1.000000000000e+00
    X0000014  C0000047   1.000000000000e+00
    X0000014  C0000048   1.000000000000e+00
    X0000014  C0000049   1.000000000000e+00
    X0000014  C0000050   1.000000000000e+00
    MARK      'MARKER'                 'INTEND'
    MARK      'MARKER'                 'INTORG'
    X0000014  C0000033   1.000000000000e+00
    X0000014  C0000034   1.000000000000e+00
    X0000014  C0000035   1.000000000000e+00
    X0000014  C0000036   1.000000000000e+00
    X0000014  C0000037   1.000000000000e+00
    X0000014  C0000038   1.000000000000e+00
    X0000014  C0000039   1.000000000000e+00
    X0000014  C0000040   1.000000000000e+00
    X0000014  C0000041   1.000000000000e+00
    X0000014  C0000042   1.000000000000e+00
    X0000014  C0000043   1.000000000000e+00
    X0000014  C0000044   1.000000000000e+00
    X0000014  C0000045   1.000000000000e+00
    X0000014  C0000046   1.000000000000e+00
    X0000014  C0000047   1.000000000000e+00
    X0000014  C0000048   1.000000000000e+00
    X0000014  C0000049   1.000000000000e+00
    X0000014  C0000050   1.000000000000e+00
    MARK      'MARKER'                 'INTEND'
    MARK      'MARKER'                 'INTORG'
    X0000014  C0000033   1.000000000000e+00
    X0000014  C0000034   1.000000000000e+00
    X0000014  C0000035   1.000000000000e+00
    X0000014  C0000036   1.000000000000e+00
    X0000014  C0000037   1.000000000000e+00
    X0000014  C0000038   1.000000000000e+00
    X0000014  C0000039   1.000000000000e+00
    X0000014  C0000040   1.000000000000e+00
    X0000014  C0000041   1.000000000000e+00
    X0000014  C0000042   1.000000000000e+00
    X0000014  C0000043   1.000000000000e+00
    X0000014  C0000044   1.000000000000e+00
    X0000014  C0000045   1.000000000000e+00
    X0000014  C0000046   1.000000000000e+00
    X0000014  C0000047   1.000000000000e+00
    X0000014  C0000048   1.000000000000e+00
    X0000014  C0000049   1.000000000000e+00
    X0000014  C0000050   1.000000000000e+00
    MARK      'MARKER'                 'INTEND'
    MARK      'MARKER'                 'INTORG'
    X0000014  C0000033   1.000000000000e+00
    X0000014  C0000034   1.000000000000e+00
    X0000014  C0000035   1.000000000000e+00
    X0000014  C0000036   1.000000000000e+00
    X0000014  C0000037   1.000000000000e+00
    X0000014  C0000038   1.000000000000e+00
    X0000014  C0000039   1.000000000000e+00
    X0000014  C0000040   1.000000000000e+00
    X0000014  C0000041   1.000000000000e+00
    X0000014  C0000042   1.000000000000e+00
    X0000014  C0000043   1.000000000000e+00
    X0000014  C0000044   1.000000000000e+00
    X0000014  C0000045   1.000000000000e+00
    X0000014  C0000046   1.000000000000e+00
    X0000014  C0000047   1.000000000000e+00
    X0000014  C0000048   1.000000000000e+00
    X0000014  C0000049   1.000000000000e+00
    X0000014  C0000050   1.000000000000e+00
    MARK      'MARKER'                 'INTEND'
    MARK      'MARKER'                 'INTORG'
    X0000014  C0000033   1.000000000000e+00
    X0000014  C0000034   1.000000000000e+00
    X0000014  C0000035   1.000000000000e+00
    X0000014  C0000036   1.000000000000e+00
    X0000014  C0000037   1.000000000000e+00
    X0000014  C0000038   1.000000000000e+00
    X0000014  C0000039   1.000000000000e+00
    X0000014  C0000040   1.000000000000e+00
    X0000014  C0000041   1.000000000000e+00
    X0000014  C0000042   1.000000000000e+00
    X0000014  C0000043   1.000000000000e+00
    X0000014  C0000044   1.000000000000e+00
    X0000014  C0000045   1.000000000000e+00
    X0000014  C0000046   1.000000000000e+00
    X0000014  C0000047   1.000000000000e+00
    X0000014  C0000048   1.000000000000e+00
    X0000014  C0000049   1.000000000000e+00
    X0000014  C0000050   1.000000000000e+00
    MARK      'MARKER'                 'INTEND'
    MARK      'MARKER'                 'INTORG'
    X0000014  C0000033   1.000000000000e+00
    X0000014  C0000034   1.000000000000e+00
    X0000014  C0000035   1.000000000000e+00
    X0000014  C0000036   1.000000000000e+00
    X0000014  C0000037   1.000000000000e+00
    X0000014  C0000038   1.000000000000e+00
    X0000014  C0000039   1.000000000000e+00
    X0000014  C0000040   1.000000000000e+00
    X0000014  C0000041   1.000000000000e+00
    X0000014  C0000042   1.000000000000e+00
    X0000014  C0000043   1.000000000000e+00
    X0000014  C0000044   1.000000000000e+00
    X0000014  C0000045   1.000000000000e+00
    X0000014  C0000046   1.000000000000e+00
    X0000014  C0000047   1.000000000000e+00
    X0000014  C0000048   1.000000000000e+00
    X0000014  C0000049   1.000000000000e+00
    X0000014  C0000050   1.000000000000e+00
    MARK      'MARKER'                 'INTEND'
    MARK      'MARKER'                 'INTORG'
    X0000016  C0000001   1.000000000000e+00
    X0000016  C0000004  -1.000000000000e+00
    X0000016  C0000005  -1.000000000000e+00
    X0000016  C0000010   1.000000000000e+00
    X0000016  C0000013  -1.000000000000e+00
    X0000016  C0000014  -1.000000000000e+00
    MARK      'MARKER'                 'INTEND'
    MARK      'MARKER'                 'INTORG'
    X0000016  C0000001   1.000000000000e+00
    X0000016  C0000004  -1.000000000000e+00
    X0000016  C0000005  -1.000000000000e+00
    X0000016  C0000010   1.000000000000e+00
    X0000016  C0000013  -1.000000000000e+00
    X0000016  C0000014  -1.000000000000e+00
    MARK      'MARKER'                 'INTEND'
    MARK      'MARKER'                 'INTORG'
    X0000018  C0000002   1.000000000000e+00
    X0000018  C0000007  -1.000000000000e+00
    X0000018  C0000008  -1.000000000000e+00
    X0000018  C0000024   1.000000000000e+00
    X0000018  C0000026  -1.000000000000e+00
    X0000018  C0000027  -1.000000000000e+00
    MARK      'MARKER'                 'INTEND'
    MARK      'MARKER'                 'INTORG'
    X0000018  C0000002   1.000000000000e+00
    X0000018  C0000007  -1.000000000000e+00
    X0000018  C0000008  -1.000000000000e+00
    X0000018  C0000024   1.000000000000e+00
    X0000018  C0000026  -1.000000000000e+00
    X0000018  C0000027  -1.000000000000e+00
    MARK      'MARKER'                 'INTEND'
    MARK      'MARKER'                 'INTORG'
    X0000030  C0000000   1.000000000000e+00
    X0000030  C0000001   1.000000000000e+00
    X0000030  C0000002   1.000000000000e+00
    X0000030  C0000009   1.000000000000e+00
    X0000030  C0000010   1.000000000000e+00
    X0000030  C0000011   1.000000000000e+00
    X0000030  C0000018   1.000000000000e+00
    X0000030  C0000019   1.000000000000e+00
    X0000030  C0000023   1.000000000000e+00
    X0000030  C0000024   1.000000000000e+00
    X0000030  C0000028   1.000000000000e+00
    X0000030  C0000029   1.000000000000e+00
    MARK      'MARKER'                 'INTEND'
    MARK      'MARKER'                 'INTORG'
    X0000030  C0000000   1.000000000000e+00
    X0000030  C0000001   1.000000000000e+00
    X0000030  C0000002   1.000000000000e+00
    X0000030  C0000009   1.000000000000e+00
    X0000030  C0000010   1.000000000000e+00
    X0000030  C0000011   1.000000000000e+00
    X0000030  C0000018   1.000000000000e+00
    X0000030  C0000019   1.000000000000e+00
    X0000030  C0000023   1.000000000000e+00
    X0000030  C0000024   1.000000000000e+00
    X0000030  C0000028   1.000000000000e+00
    X0000030  C0000029   1.000000000000e+00
    MARK      'MARKER'                 'INTEND'
    MARK      'MARKER'                 'INTORG'
    X0000030  C0000000   1.000000000000e+00
    X0000030  C0000001   1.000000000000e+00
    X0000030  C0000002   1.000000000000e+00
    X0000030  C0000009   1.000000000000e+00
    X0000030  C0000010   1.000000000000e+00
    X0000030  C0000011   1.000000000000e+00
    X0000030  C0000018   1.000000000000e+00
    X0000030  C0000019   1.000000000000e+00
    X0000030  C0000023   1.000000000000e+00
    X0000030  C0000024   1.000000000000e+00
    X0000030  C0000028   1.000000000000e+00
    X0000030  C0000029   1.000000000000e+00
    MARK      'MARKER'                 'INTEND'
    MARK      'MARKER'                 'INTORG'
    X0000030  C0000000   1.000000000000e+00
    X0000030  C0000001   1.000000000000e+00
    X0000030  C0000002   1.000000000000e+00
    X0000030  C0000009   1.000000000000e+00
    X0000030  C0000010   1.000000000000e+00
    X0000030  C0000011   1.000000000000e+00
    X0000030  C0000018   1.000000000000e+00
    X0000030  C0000019   1.000000000000e+00
    X0000030  C0000023   1.000000000000e+00
    X0000030  C0000024   1.000000000000e+00
    X0000030  C0000028   1.000000000000e+00
    X0000030  C0000029   1.000000000000e+00
    MARK      'MARKER'                 'INTEND'
    MARK      'MARKER'                 'INTORG'
    X0000030  C0000000   1.000000000000e+00
    X0000030  C0000001   1.000000000000e+00
    X0000030  C0000002   1.000000000000e+00
    X0000030  C0000009   1.000000000000e+00
    X0000030  C0000010   1.000000000000e+00
    X0000030  C0000011   1.000000000000e+00
    X0000030  C0000018   1.000000000000e+00
    X0000030  C0000019   1.000000000000e+00
    X0000030  C0000023   1.000000000000e+00
    X0000030  C0000024   1.000000000000e+00
    X0000030  C0000028   1.000000000000e+00
    X0000030  C0000029   1.000000000000e+00
    MARK      'MARKER'                 'INTEND'
    MARK      'MARKER'                 'INTORG'
    X0000030  C0000000   1.000000000000e+00
    X0000030  C0000001   1.000000000000e+00
    X0000030  C0000002   1.000000000000e+00
    X0000030  C0000009   1.000000000000e+00
    X0000030  C0000010   1.000000000000e+00
    X0000030  C0000011   1.000000000000e+00
    X0000030  C0000018   1.000000000000e+00
    X0000030  C0000019   1.000000000000e+00
    X0000030  C0000023   1.000000000000e+00
    X0000030  C0000024   1.000000000000e+00
    X0000030  C0000028   1.000000000000e+00
    X0000030  C0000029   1.000000000000e+00
    MARK      'MARKER'                 'INTEND'
    MARK      'MARKER'                 'INTORG'
    X0000030  C0000000   1.000000000000e+00
    X0000030  C0000001   1.000000000000e+00
    X0000030  C0000002   1.000000000000e+00
    X0000030  C0000009   1.000000000000e+00
    X0000030  C0000010   1.000000000000e+00
    X0000030  C0000011   1.000000000000e+00
    X0000030  C0000018   1.000000000000e+00
    X0000030  C0000019   1.000000000000e+00
    X0000030  C0000023   1.000000000000e+00
    X0000030  C0000024   1.000000000000e+00
    X0000030  C0000028   1.000000000000e+00
    X0000030  C0000029   1.000000000000e+00
    MARK      'MARKER'                 'INTEND'
    MARK      'MARKER'                 'INTORG'
    X0000030  C0000000   1.000000000000e+00
    X0000030  C0000001   1.000000000000e+00
    X0000030  C0000002   1.000000000000e+00
    X0000030  C0000009   1.000000000000e+00
    X0000030  C0000010   1.000000000000e+00
    X0000030  C0000011   1.000000000000e+00
    X0000030  C0000018   1.000000000000e+00
    X0000030  C0000019   1.000000000000e+00
    X0000030  C0000023   1.000000000000e+00
    X0000030  C0000024   1.000000000000e+00
    X0000030  C0000028   1.000000000000e+00
    X0000030  C0000029   1.000000000000e+00
    MARK      'MARKER'                 'INTEND'
    MARK      'MARKER'                 'INTORG'
    X0000030  C0000000   1.000000000000e+00
    X0000030  C0000001   1.000000000000e+00
    X0000030  C0000002   1.000000000000e+00
    X0000030  C0000009   1.000000000000e+00
    X0000030  C0000010   1.000000000000e+00
    X0000030  C0000011   1.000000000000e+00
    X0000030  C0000018   1.000000000000e+00
    X0000030  C0000019   1.000000000000e+00
    X0000030  C0000023   1.000000000000e+00
    X0000030  C0000024   1.000000000000e+00
    X0000030  C0000028   1.000000000000e+00
    X0000030  C0000029   1.000000000000e+00
    MARK      'MARKER'                 'INTEND'
    MARK      'MARKER'                 'INTORG'
    X0000030  C0000000   1.000000000000e+00
    X0000030  C0000001   1.000000000000e+00
    X0000030  C0000002   1.000000000000e+00
    X0000030  C0000009   1.000000000000e+00
    X0000030  C0000010   1.000000000000e+00
    X0000030  C0000011   1.000000000000e+00
    X0000030  C0000018   1.000000000000e+00
    X0000030  C0000019   1.000000000000e+00
    X0000030  C0000023   1.000000000000e+00
    X0000030  C0000024   1.000000000000e+00
    X0000030  C0000028   1.000000000000e+00
    X0000030  C0000029   1.000000000000e+00
    MARK      'MARKER'                 'INTEND'
    MARK      'MARKER'                 'INTORG'
    X0000030  C0000000   1.000000000000e+00
    X0000030  C0000001   1.000000000000e+00
    X0000030  C0000002   1.000000000000e+00
    X0000030  C0000009   1.000000000000e+00
    X0000030  C0000010   1.000000000000e+00
    X0000030  C0000011   1.000000000000e+00
    X0000030  C0000018   1.000000000000e+00
    X0000030  C0000019   1.000000000000e+00
    X0000030  C0000023   1.000000000000e+00
    X0000030  C0000024   1.000000000000e+00
    X0000030  C0000028   1.000000000000e+00
    X0000030  C0000029   1.000000000000e+00
    MARK      'MARKER'                 'INTEND'
    MARK      'MARKER'                 'INTORG'
    X0000030  C0000000   1.000000000000e+00
    X0000030  C0000001   1.000000000000e+00
    X0000030  C0000002   1.000000000000e+00
    X0000030  C0000009   1.000000000000e+00
    X0000030  C0000010   1.000000000000e+00
    X0000030  C0000011   1.000000000000e+00
    X0000030  C0000018   1.000000000000e+00
    X0000030  C0000019   1.000000000000e+00
    X0000030  C0000023   1.000000000000e+00
    X0000030  C0000024   1.000000000000e+00
    X0000030  C0000028   1.000000000000e+00
    X0000030  C0000029   1.000000000000e+00
    MARK      'MARKER'                 'INTEND'
    MARK      'MARKER'                 'INTORG'
    X0000031  C0000012   1.000000000000e+00
    X0000031  C0000013   1.000000000000e+00
    X0000031  C0000014   1.000000000000e+00
    X0000031  C0000037  -1.000000000000e+00
    X0000031  C0000038  -1.000000000000e+00
    MARK      'MARKER'                 'INTEND'
    MARK      'MARKER'                 'INTORG'
    X0000032  C0000015   1.000000000000e+00
    X0000032  C0000016   1.000000000000e+00
    X0000032  C0000017   1.000000000000e+00
    X0000032  C0000040  -1.000000000000e+00
    X0000032  C0000041  -1.000000000000e+00
    MARK      'MARKER'                 'INTEND'
    MARK      'MARKER'                 'INTORG'
    X0000033  C0000020   1.000000000000e+00
    X0000033  C0000021   1.000000000000e+00
    X0000033  C0000022   1.000000000000e+00
    X0000033  C0000043  -1.000000000000e+00
    X0000033  C0000044  -1.000000000000e+00
    MARK      'MARKER'                 'INTEND'
    MARK      'MARKER'                 'INTORG'
    X0000034  C0000025   1.000000000000e+00
    X0000034  C0000026   1.000000000000e+00
    X0000034  C0000027   1.000000000000e+00
    X0000034  C0000046  -1.000000000000e+00
    X0000034  C0000047  -1.000000000000e+00
    MARK      'MARKER'                 'INTEND'
    MARK      'MARKER'                 'INTORG'
    X0000035  C0000003   1.000000000000e+00
    X0000035  C0000004   1.000000000000e+00
    X0000035  C0000005   1.000000000000e+00
    X0000035  C0000033  -1.000000000000e+00
    X0000035  C0000035  -1.000000000000e+00
    MARK      'MARKER'                 'INTEND'
    MARK      'MARKER'                 'INTORG'
    X0000036  C0000030   1.000000000000e+00
    X0000036  C0000031   1.000000000000e+00
    X0000036  C0000032   1.000000000000e+00
    X0000036  C0000049  -1.000000000000e+00
    X0000036  C0000050  -1.000000000000e+00
    MARK      'MARKER'                 'INTEND'
    MARK      'MARKER'                 'INTORG'
    X0000037  C0000006   1.000000000000e+00
    X0000037  C0000007   1.000000000000e+00
    X0000037  C0000008   1.000000000000e+00
    X0000037  C0000034  -1.000000000000e+00
    X0000037  C0000035  -1.000000000000e+00
    MARK      'MARKER'                 'INTEND'
RHS
    RHS       C0000000   1.000000000000e+00
    RHS       C0000001   1.000000000000e+00
    RHS       C0000002   1.000000000000e+00
    RHS       C0000003   0.000000000000e+00
    RHS       C0000004   0.000000000000e+00
    RHS       C0000005   0.000000000000e+00
    RHS       C0000006   0.000000000000e+00
    RHS       C0000007   0.000000000000e+00
    RHS       C0000008   0.000000000000e+00
    RHS       C0000009   1.000000000000e+00
    RHS       C0000010   1.000000000000e+00
    RHS       C0000011   1.000000000000e+00
    RHS       C0000012   0.000000000000e+00
    RHS       C0000013   0.000000000000e+00
    RHS       C0000014   0.000000000000e+00
    RHS       C0000015   0.000000000000e+00
    RHS       C0000016   0.000000000000e+00
    RHS       C0000017   0.000000000000e+00
    RHS       C0000018   1.000000000000e+00
    RHS       C0000019   1.000000000000e+00
    RHS       C0000020   0.000000000000e+00
    RHS       C0000021   0.000000000000e+00
    RHS       C0000022   0.000000000000e+00
    RHS       C0000023   1.000000000000e+00
    RHS       C0000024   1.000000000000e+00
    RHS       C0000025   0.000000000000e+00
    RHS       C0000026   0.000000000000e+00
    RHS       C0000027   0.000000000000e+00
    RHS       C0000028   1.000000000000e+00
    RHS       C0000029   1.000000000000e+00
    RHS       C0000030   0.000000000000e+00
    RHS       C0000031   0.000000000000e+00
    RHS       C0000032   0.000000000000e+00
    RHS       C0000033   0.000000000000e+00
    RHS       C0000034   0.000000000000e+00
    RHS       C0000035  -1.000000000000e+00
    RHS       C0000036   0.000000000000e+00
    RHS       C0000037   0.000000000000e+00
    RHS       C0000038  -1.000000000000e+00
    RHS       C0000039   0.000000000000e+00
    RHS       C0000040   0.000000000000e+00
    RHS       C0000041  -1.000000000000e+00
    RHS       C0000042   0.000000000000e+00
    RHS       C0000043   0.000000000000e+00
    RHS       C0000044  -1.000000000000e+00
    RHS       C0000045   0.000000000000e+00
    RHS       C0000046   0.000000000000e+00
    RHS       C0000047  -1.000000000000e+00
    RHS       C0000048   0.000000000000e+00
    RHS       C0000049   0.000000000000e+00
    RHS       C0000050  -1.000000000000e+00
BOUNDS
 FX BND       X0000000   0.000000000000e+00
 BV BND       X0000002
 BV BND       X0000002
 BV BND       X0000004
 BV BND       X0000004
 BV BND       X0000005
 BV BND       X0000006
 BV BND       X0000008
 BV BND       X0000008
 BV BND       X0000014
 BV BND       X0000014
 BV BND       X0000014
 BV BND       X0000014
 BV BND       X0000014
 BV BND       X0000014
 BV BND       X0000016
 BV BND       X0000016
 BV BND       X0000018
 BV BND       X0000018
 BV BND       X0000030
 BV BND       X0000030
 BV BND       X0000030
 BV BND       X0000030
 BV BND       X0000030
 BV BND       X0000030
 BV BND       X0000030
 BV BND       X0000030
 BV BND       X0000030
 BV BND       X0000030
 BV BND       X0000030
 BV BND       X0000030
 BV BND       X0000031
 BV BND       X0000032
 BV BND       X0000033
 BV BND       X0000034
 BV BND       X0000035
 BV BND       X0000036
 BV BND       X0000037
ENDATA
